
Gurobi 6.5.2 (linux64) logging started Mon Aug 29 10:57:51 2016

Optimize a model with 21 rows, 41 columns and 87 nonzeros
Coefficient statistics:
  Matrix range    [1e+00, 2e+00]
  Objective range [3e+00, 1e+02]
  Bounds range    [1e+00, 1e+00]
  RHS range       [1e+00, 1e+00]
Found heuristic solution: objective 659
Presolve removed 9 rows and 6 columns
Presolve time: 0.00s
Presolved: 12 rows, 35 columns, 72 nonzeros
Variable types: 0 continuous, 35 integer (35 binary)

Root relaxation: objective 2.880000e+02, 13 iterations, 0.00 seconds

    Nodes    |    Current Node    |     Objective Bounds      |     Work
 Expl Unexpl |  Obj  Depth IntInf | Incumbent    BestBd   Gap | It/Node Time

*    0     0               0     288.0000000  288.00000  0.00%     -    0s

Explored 0 nodes (13 simplex iterations) in 0.00 seconds
Thread count was 8 (of 8 available processors)

Optimal solution found (tolerance 1.00e-04)
Best objective 2.880000000000e+02, best bound 2.880000000000e+02, gap 0.0%
